50, 1022775
14151, 4582
13722, 4498
14284, 4529
13977, 4408
14300, 4559
14094, 4480
13792, 4378
13702, 4519
14303, 4628
14331, 4542
13922, 4625
14423, 4377
14508, 4564
14358, 4582
14622, 4401
14374, 4627
14560, 4634
14179, 4626
14620, 4544
14203, 4591
13645, 4529
13976, 4455
13797, 4600
14292, 4540
14427, 4490
1000070, 217900
986960, 213542
973407, 209184
959867, 204826
946289, 200468
933518, 196110
919932, 191752
906841, 187394
893287, 183036
880313, 178678
867177, 174320
853984, 169962
840513, 165604
826957, 161246
814092, 156888
800628, 152530
787443, 148172
773956, 143814
760470, 139456
747548, 135098
735235, 130740
722079, 126382
708648, 122024
695182, 117666
681624, 113308
